Minimize
  0 B8(0) + 0 B9(0) + 0 B10(0) + 0 B11(0) + 0 B12(0) + 0 B13(0) + 0 B14(0)
   + 0 B15(0) + 0.07884 C16(1) + 0.21024 C17(1) + 0.15768 C18(1) + 0 C19(0)
   + 0 C20(0) + 0 C21(0) + 0 C22(0) + 0 C23(0) + 0 C24(0) + 0 C25(0)
   + 0 C26(0) + 0 C27(0) + 0 C28(0) + 0 C29(0) + 0 C30(0) + 0 C31(0)
   + 0 C32(0) + 0 C33(0) + 0 C34(0) + 0 C35(0) + 0 C36(0) + 2 B45(0)
   + B46(0) + 3.5 B47(0) + 1.5 B48(0) + B49(0) + 2 B50(0) + 2 B51(0)
   + 3 B52(0) + 0 B61(0) + 0 B62(0) + 0 B63(0) + 0 B64(0) + 0 B65(0)
   + 0 B66(0) + 0 B67(0) + 0 B68(0) + 0.0716727272727273 C69(1)
   + 0.1911272727272728 C70(1) + 0.1433454545454546 C71(1) + 0 C72(0)
   + 0 C73(0) + 0 C74(0) + 0 C75(0) + 0 C76(0) + 0 C77(0) + 0 C78(0)
   + 0 C79(0) + 0 C80(0) + 0 C81(0) + 0 C82(0) + 0 C83(0) + 0 C84(0)
   + 0 C85(0) + 0 C86(0) + 0 C87(0) + 0 C88(0) + 0 C89(0)
   + 1.818181818181818 B98(0) + 0.9090909090909091 B99(0)
   + 3.181818181818182 B100(0) + 1.363636363636364 B101(0)
   + 0.9090909090909091 B102(0) + 1.818181818181818 B103(0)
   + 1.818181818181818 B104(0) + 2.727272727272727 B105(0) + 0 B114(0)
   + 0 B115(0) + 0 B116(0) + 0 B117(0) + 0 B118(0) + 0 B119(0) + 0 B120(0)
   + 0 B121(0) + 0.0651570247933884 C122(1) + 0.1737520661157024 C123(1)
   + 0.1303140495867768 C124(1) + 0 C125(0) + 0 C126(0) + 0 C127(0)
   + 0 C128(0) + 0 C129(0) + 0 C130(0) + 0 C131(0) + 0 C132(0) + 0 C133(0)
   + 0 C134(0) + 0 C135(0) + 0 C136(0) + 0 C137(0) + 0 C138(0) + 0 C139(0)
   + 0 C140(0) + 0 C141(0) + 0 C142(0) + 1.652892561983471 B151(0)
   + 0.8264462809917354 B152(0) + 2.892561983471074 B153(0)
   + 1.239669421487603 B154(0) + 0.8264462809917354 B155(0)
   + 1.652892561983471 B156(0) + 1.652892561983471 B157(0)
   + 2.479338842975206 B158(0) + 0 B167(0) + 0 B168(0) + 0 B169(0)
   + 0 B170(0) + 0 B171(0) + 0 B172(0) + 0 B173(0) + 0 B174(0)
   + 0.0592336589030804 C175(1) + 0.1579564237415476 C176(1)
   + 0.1184673178061607 C177(1) + 0 C178(0) + 0 C179(0) + 0 C180(0)
   + 0 C181(0) + 0 C182(0) + 0 C183(0) + 0 C184(0) + 0 C185(0) + 0 C186(0)
   + 0 C187(0) + 0 C188(0) + 0 C189(0) + 0 C190(0) + 0 C191(0) + 0 C192(0)
   + 0 C193(0) + 0 C194(0) + 0 C195(0) + 1.502629601803155 B204(0)
   + 0.7513148009015775 B205(0) + 2.629601803155521 B206(0)
   + 1.126972201352366 B207(0) + 0.7513148009015775 B208(0)
   + 1.502629601803155 B209(0) + 1.502629601803155 B210(0)
   + 2.253944402704732 B211(0) + 0 B220(0) + 0 B221(0) + 0 B222(0)
   + 0 B223(0) + 0 B224(0) + 0 B225(0) + 0 B226(0) + 0 B227(0)
   + 0.0538487808209822 C228(1) + 0.1435967488559524 C229(1)
   + 0.1076975616419643 C230(1) + 0 C231(0) + 0 C232(0) + 0 C233(0)
   + 0 C234(0) + 0 C235(0) + 0 C236(0) + 0 C237(0) + 0 C238(0) + 0 C239(0)
   + 0 C240(0) + 0 C241(0) + 0 C242(0) + 0 C243(0) + 0 C244(0) + 0 C245(0)
   + 0 C246(0) + 0 C247(0) + 0 C248(0) + 1.366026910730141 B257(0)
   + 0.6830134553650705 B258(0) + 2.390547093777747 B259(0)
   + 1.024520183047606 B260(0) + 0.6830134553650705 B261(0)
   + 1.366026910730141 B262(0) + 1.366026910730141 B263(0)
   + 2.049040366095212 B264(0) + 0 B273(0) + 0 B274(0) + 0 B275(0)
   + 0 B276(0) + 0 B277(0) + 0 B278(0) + 0 B279(0) + 0 B280(0)
   + 0.0489534371099838 C281(1) + 0.1305424989599567 C282(1)
   + 0.0979068742199675 C283(1) + 0 C284(0) + 0 C285(0) + 0 C286(0)
   + 0 C287(0) + 0 C288(0) + 0 C289(0) + 0 C290(0) + 0 C291(0) + 0 C292(0)
   + 0 C293(0) + 0 C294(0) + 0 C295(0) + 0 C296(0) + 0 C297(0) + 0 C298(0)
   + 0 C299(0) + 0 C300(0) + 0 C301(0) + 1.24184264611831 B310(0)
   + 0.6209213230591549 B311(0) + 2.173224630707042 B312(0)
   + 0.9313819845887324 B313(0) + 0.6209213230591549 B314(0)
   + 1.24184264611831 B315(0) + 1.24184264611831 B316(0)
   + 1.862763969177465 B317(0) + 0 B326(0) + 0 B327(0) + 0 B328(0)
   + 0 B329(0) + 0 B330(0) + 0 B331(0) + 0 B332(0) + 0 B333(0)
   + 0.0445031246454398 C334(1) + 0.1186749990545061 C335(1)
   + 0.0890062492908796 C336(1) + 0 C337(0) + 0 C338(0) + 0 C339(0)
   + 0 C340(0) + 0 C341(0) + 0 C342(0) + 0 C343(0) + 0 C344(0) + 0 C345(0)
   + 0 C346(0) + 0 C347(0) + 0 C348(0) + 0 C349(0) + 0 C350(0) + 0 C351(0)
   + 0 C352(0) + 0 C353(0) + 0 C354(0) + 1.128947860107554 B363(0)
   + 0.5644739300537772 B364(0) + 1.97565875518822 B365(0)
   + 0.8467108950806658 B366(0) + 0.5644739300537772 B367(0)
   + 1.128947860107554 B368(0) + 1.128947860107554 B369(0)
   + 1.693421790161332 B370(0) + 0 B379(0) + 0 B380(0) + 0 B381(0)
   + 0 B382(0) + 0 B383(0) + 0 B384(0) + 0 B385(0) + 0 B386(0)
   + 0.0404573860413089 C387(1) + 0.1078863627768237 C388(1)
   + 0.0809147720826178 C389(1) + 0 C390(0) + 0 C391(0) + 0 C392(0)
   + 0 C393(0) + 0 C394(0) + 0 C395(0) + 0 C396(0) + 0 C397(0) + 0 C398(0)
   + 0 C399(0) + 0 C400(0) + 0 C401(0) + 0 C402(0) + 0 C403(0) + 0 C404(0)
   + 0 C405(0) + 0 C406(0) + 0 C407(0) + 1.026316236461413 B416(0)
   + 0.5131581182307065 B417(0) + 1.796053413807473 B418(0)
   + 0.7697371773460596 B419(0) + 0.5131581182307065 B420(0)
   + 1.026316236461413 B421(0) + 1.026316236461413 B422(0)
   + 1.539474354692119 B423(0) + 0 B432(0) + 0 B433(0) + 0 B434(0)
   + 0 B435(0) + 0 B436(0) + 0 B437(0) + 0 B438(0) + 0 B439(0)
   + 0.0367794418557354 C440(1) + 0.0980785116152943 C441(1)
   + 0.0735588837114707 C442(1) + 0 C443(0) + 0 C444(0) + 0 C445(0)
   + 0 C446(0) + 0 C447(0) + 0 C448(0) + 0 C449(0) + 0 C450(0) + 0 C451(0)
   + 0 C452(0) + 0 C453(0) + 0 C454(0) + 0 C455(0) + 0 C456(0) + 0 C457(0)
   + 0 C458(0) + 0 C459(0) + 0 C460(0) + 0.9330147604194662 B469(0)
   + 0.4665073802097331 B470(0) + 1.632775830734066 B471(0)
   + 0.6997610703145997 B472(0) + 0.4665073802097331 B473(0)
   + 0.9330147604194662 B474(0) + 0.9330147604194662 B475(0)
   + 1.399522140629199 B476(0) + 0 B485(0) + 0 B486(0) + 0 B487(0)
   + 0 B488(0) + 0 B489(0) + 0 B490(0) + 0 B491(0) + 0 B492(0)
   + 0.0334358562324867 C493(1) + 0.0891622832866312 C494(1)
   + 0.0668717124649734 C495(1) + 0 C496(0) + 0 C497(0) + 0 C498(0)
   + 0 C499(0) + 0 C500(0) + 0 C501(0) + 0 C502(0) + 0 C503(0) + 0 C504(0)
   + 0 C505(0) + 0 C506(0) + 0 C507(0) + 0 C508(0) + 0 C509(0) + 0 C510(0)
   + 0 C511(0) + 0 C512(0) + 0 C513(0) + 0.8481952367449691 B522(0)
   + 0.4240976183724846 B523(0) + 1.484341664303696 B524(0)
   + 0.6361464275587269 B525(0) + 0.4240976183724846 B526(0)
   + 0.8481952367449691 B527(0) + 0.8481952367449691 B528(0)
   + 1.272292855117454 B529(0)
Subject To
 c0: C0(2) - C3(2) - C7(2) - C16(1) - C37(2) + C40(2) + C44(2) <= -0
 c1: - C0(2) + C1(2) + C37(2) - C38(2) <= -40
 c2: - C1(2) + C2(2) + C3(2) - C17(1) + C38(2) - C39(2) - C40(2) <= -60
 c3: - C4(2) + C6(2) - C18(1) + C41(2) - C43(2) <= -0
 c4: - C5(2) - C6(2) + C7(2) + C42(2) + C43(2) - C44(2) <= -165
 c5: - C2(2) + C4(2) + C5(2) + C39(2) - C41(2) - C42(2) <= -0
 c6: C53(2) - C56(2) - C60(2) - C69(1) - C90(2) + C93(2) + C97(2) <= -0
 c7: - C53(2) + C54(2) + C90(2) - C91(2) <= -40.4
 c8: - C54(2) + C55(2) + C56(2) - C70(1) + C91(2) - C92(2) - C93(2)
   <= -60.6
 c9: - C57(2) + C59(2) - C71(1) + C94(2) - C96(2) <= -0
 c10: - C58(2) - C59(2) + C60(2) + C95(2) + C96(2) - C97(2) <= -166.65
 c11: - C55(2) + C57(2) + C58(2) + C92(2) - C94(2) - C95(2) <= -0
 c12: C106(2) - C109(2) - C113(2) - C122(1) - C143(2) + C146(2) + C150(2)
   <= -0
 c13: - C106(2) + C107(2) + C143(2) - C144(2) <= -40.804
 c14: - C107(2) + C108(2) + C109(2) - C123(1) + C144(2) - C145(2) - C146(2)
   <= -61.206
 c15: - C110(2) + C112(2) - C124(1) + C147(2) - C149(2) <= -0
 c16: - C111(2) - C112(2) + C113(2) + C148(2) + C149(2) - C150(2)
   <= -168.3165
 c17: - C108(2) + C110(2) + C111(2) + C145(2) - C147(2) - C148(2) <= -0
 c18: C159(2) - C162(2) - C166(2) - C175(1) - C196(2) + C199(2) + C203(2)
   <= -0
 c19: - C159(2) + C160(2) + C196(2) - C197(2) <= -41.21204
 c20: - C160(2) + C161(2) + C162(2) - C176(1) + C197(2) - C198(2) - C199(2)
   <= -61.81806000000001
 c21: - C163(2) + C165(2) - C177(1) + C200(2) - C202(2) <= -0
 c22: - C164(2) - C165(2) + C166(2) + C201(2) + C202(2) - C203(2)
   <= -169.999665
 c23: - C161(2) + C163(2) + C164(2) + C198(2) - C200(2) - C201(2) <= -0
 c24: C212(2) - C215(2) - C219(2) - C228(1) - C249(2) + C252(2) + C256(2)
   <= -0
 c25: - C212(2) + C213(2) + C249(2) - C250(2) <= -41.6241604
 c26: - C213(2) + C214(2) + C215(2) - C229(1) + C250(2) - C251(2) - C252(2)
   <= -62.4362406
 c27: - C216(2) + C218(2) - C230(1) + C253(2) - C255(2) <= -0
 c28: - C217(2) - C218(2) + C219(2) + C254(2) + C255(2) - C256(2)
   <= -171.69966165
 c29: - C214(2) + C216(2) + C217(2) + C251(2) - C253(2) - C254(2) <= -0
 c30: C265(2) - C268(2) - C272(2) - C281(1) - C302(2) + C305(2) + C309(2)
   <= -0
 c31: - C265(2) + C266(2) + C302(2) - C303(2) <= -42.04040200400001
 c32: - C266(2) + C267(2) + C268(2) - C282(1) + C303(2) - C304(2) - C305(2)
   <= -63.06060300600001
 c33: - C269(2) + C271(2) - C283(1) + C306(2) - C308(2) <= -0
 c34: - C270(2) - C271(2) + C272(2) + C307(2) + C308(2) - C309(2)
   <= -173.4166582665
 c35: - C267(2) + C269(2) + C270(2) + C304(2) - C306(2) - C307(2) <= -0
 c36: C318(2) - C321(2) - C325(2) - C334(1) - C355(2) + C358(2) + C362(2)
   <= -0
 c37: - C318(2) + C319(2) + C355(2) - C356(2) <= -42.46080602404
 c38: - C319(2) + C320(2) + C321(2) - C335(1) + C356(2) - C357(2) - C358(2)
   <= -63.69120903606001
 c39: - C322(2) + C324(2) - C336(1) + C359(2) - C361(2) <= -0
 c40: - C323(2) - C324(2) + C325(2) + C360(2) + C361(2) - C362(2)
   <= -175.150824849165
 c41: - C320(2) + C322(2) + C323(2) + C357(2) - C359(2) - C360(2) <= -0
 c42: C371(2) - C374(2) - C378(2) - C387(1) - C408(2) + C411(2) + C415(2)
   <= -0
 c43: - C371(2) + C372(2) + C408(2) - C409(2) <= -42.8854140842804
 c44: - C372(2) + C373(2) + C374(2) - C388(1) + C409(2) - C410(2) - C411(2)
   <= -64.3281211264206
 c45: - C375(2) + C377(2) - C389(1) + C412(2) - C414(2) <= -0
 c46: - C376(2) - C377(2) + C378(2) + C413(2) + C414(2) - C415(2)
   <= -176.9023330976567
 c47: - C373(2) + C375(2) + C376(2) + C410(2) - C412(2) - C413(2) <= -0
 c48: C424(2) - C427(2) - C431(2) - C440(1) - C461(2) + C464(2) + C468(2)
   <= -0
 c49: - C424(2) + C425(2) + C461(2) - C462(2) <= -43.31426822512321
 c50: - C425(2) + C426(2) + C427(2) - C441(1) + C462(2) - C463(2) - C464(2)
   <= -64.97140233768481
 c51: - C428(2) + C430(2) - C442(1) + C465(2) - C467(2) <= -0
 c52: - C429(2) - C430(2) + C431(2) + C466(2) + C467(2) - C468(2)
   <= -178.6713564286332
 c53: - C426(2) + C428(2) + C429(2) + C463(2) - C465(2) - C466(2) <= -0
 c54: C477(2) - C480(2) - C484(2) - C493(1) - C514(2) + C517(2) + C521(2)
   <= -0
 c55: - C477(2) + C478(2) + C514(2) - C515(2) <= -43.74741090737444
 c56: - C478(2) + C479(2) + C480(2) - C494(1) + C515(2) - C516(2) - C517(2)
   <= -65.62111636106165
 c57: - C481(2) + C483(2) - C495(1) + C518(2) - C520(2) <= -0
 c58: - C482(2) - C483(2) + C484(2) + C519(2) + C520(2) - C521(2)
   <= -180.4580699929195
 c59: - C479(2) + C481(2) + C482(2) + C516(2) - C518(2) - C519(2) <= -0
Bounds
 C0(2) free
 C1(2) free
 C2(2) free
 C3(2) free
 C4(2) free
 C5(2) free
 C6(2) free
 C7(2) free
 C31(0) free
 C32(0) free
 C33(0) free
 C34(0) free
 C35(0) free
 C36(0) free
 C37(2) free
 C38(2) free
 C39(2) free
 C40(2) free
 C41(2) free
 C42(2) free
 C43(2) free
 C44(2) free
 C53(2) free
 C54(2) free
 C55(2) free
 C56(2) free
 C57(2) free
 C58(2) free
 C59(2) free
 C60(2) free
 C84(0) free
 C85(0) free
 C86(0) free
 C87(0) free
 C88(0) free
 C89(0) free
 C90(2) free
 C91(2) free
 C92(2) free
 C93(2) free
 C94(2) free
 C95(2) free
 C96(2) free
 C97(2) free
 C106(2) free
 C107(2) free
 C108(2) free
 C109(2) free
 C110(2) free
 C111(2) free
 C112(2) free
 C113(2) free
 C137(0) free
 C138(0) free
 C139(0) free
 C140(0) free
 C141(0) free
 C142(0) free
 C143(2) free
 C144(2) free
 C145(2) free
 C146(2) free
 C147(2) free
 C148(2) free
 C149(2) free
 C150(2) free
 C159(2) free
 C160(2) free
 C161(2) free
 C162(2) free
 C163(2) free
 C164(2) free
 C165(2) free
 C166(2) free
 C190(0) free
 C191(0) free
 C192(0) free
 C193(0) free
 C194(0) free
 C195(0) free
 C196(2) free
 C197(2) free
 C198(2) free
 C199(2) free
 C200(2) free
 C201(2) free
 C202(2) free
 C203(2) free
 C212(2) free
 C213(2) free
 C214(2) free
 C215(2) free
 C216(2) free
 C217(2) free
 C218(2) free
 C219(2) free
 C243(0) free
 C244(0) free
 C245(0) free
 C246(0) free
 C247(0) free
 C248(0) free
 C249(2) free
 C250(2) free
 C251(2) free
 C252(2) free
 C253(2) free
 C254(2) free
 C255(2) free
 C256(2) free
 C265(2) free
 C266(2) free
 C267(2) free
 C268(2) free
 C269(2) free
 C270(2) free
 C271(2) free
 C272(2) free
 C296(0) free
 C297(0) free
 C298(0) free
 C299(0) free
 C300(0) free
 C301(0) free
 C302(2) free
 C303(2) free
 C304(2) free
 C305(2) free
 C306(2) free
 C307(2) free
 C308(2) free
 C309(2) free
 C318(2) free
 C319(2) free
 C320(2) free
 C321(2) free
 C322(2) free
 C323(2) free
 C324(2) free
 C325(2) free
 C349(0) free
 C350(0) free
 C351(0) free
 C352(0) free
 C353(0) free
 C354(0) free
 C355(2) free
 C356(2) free
 C357(2) free
 C358(2) free
 C359(2) free
 C360(2) free
 C361(2) free
 C362(2) free
 C371(2) free
 C372(2) free
 C373(2) free
 C374(2) free
 C375(2) free
 C376(2) free
 C377(2) free
 C378(2) free
 C402(0) free
 C403(0) free
 C404(0) free
 C405(0) free
 C406(0) free
 C407(0) free
 C408(2) free
 C409(2) free
 C410(2) free
 C411(2) free
 C412(2) free
 C413(2) free
 C414(2) free
 C415(2) free
 C424(2) free
 C425(2) free
 C426(2) free
 C427(2) free
 C428(2) free
 C429(2) free
 C430(2) free
 C431(2) free
 C455(0) free
 C456(0) free
 C457(0) free
 C458(0) free
 C459(0) free
 C460(0) free
 C461(2) free
 C462(2) free
 C463(2) free
 C464(2) free
 C465(2) free
 C466(2) free
 C467(2) free
 C468(2) free
 C477(2) free
 C478(2) free
 C479(2) free
 C480(2) free
 C481(2) free
 C482(2) free
 C483(2) free
 C484(2) free
 C508(0) free
 C509(0) free
 C510(0) free
 C511(0) free
 C512(0) free
 C513(0) free
 C514(2) free
 C515(2) free
 C516(2) free
 C517(2) free
 C518(2) free
 C519(2) free
 C520(2) free
 C521(2) free
Binaries
 B8(0) B9(0) B10(0) B11(0) B12(0) B13(0) B14(0) B15(0) B45(0) B46(0) B47(0)
 B48(0) B49(0) B50(0) B51(0) B52(0) B61(0) B62(0) B63(0) B64(0) B65(0)
 B66(0) B67(0) B68(0) B98(0) B99(0) B100(0) B101(0) B102(0) B103(0) B104(0)
 B105(0) B114(0) B115(0) B116(0) B117(0) B118(0) B119(0) B120(0) B121(0)
 B151(0) B152(0) B153(0) B154(0) B155(0) B156(0) B157(0) B158(0) B167(0)
 B168(0) B169(0) B170(0) B171(0) B172(0) B173(0) B174(0) B204(0) B205(0)
 B206(0) B207(0) B208(0) B209(0) B210(0) B211(0) B220(0) B221(0) B222(0)
 B223(0) B224(0) B225(0) B226(0) B227(0) B257(0) B258(0) B259(0) B260(0)
 B261(0) B262(0) B263(0) B264(0) B273(0) B274(0) B275(0) B276(0) B277(0)
 B278(0) B279(0) B280(0) B310(0) B311(0) B312(0) B313(0) B314(0) B315(0)
 B316(0) B317(0) B326(0) B327(0) B328(0) B329(0) B330(0) B331(0) B332(0)
 B333(0) B363(0) B364(0) B365(0) B366(0) B367(0) B368(0) B369(0) B370(0)
 B379(0) B380(0) B381(0) B382(0) B383(0) B384(0) B385(0) B386(0) B416(0)
 B417(0) B418(0) B419(0) B420(0) B421(0) B422(0) B423(0) B432(0) B433(0)
 B434(0) B435(0) B436(0) B437(0) B438(0) B439(0) B469(0) B470(0) B471(0)
 B472(0) B473(0) B474(0) B475(0) B476(0) B485(0) B486(0) B487(0) B488(0)
 B489(0) B490(0) B491(0) B492(0) B522(0) B523(0) B524(0) B525(0) B526(0)
 B527(0) B528(0) B529(0)
End
